
******************************************************************************
This program contains Ipopt, a library for large-scale nonlinear optimization.
 Ipopt is released as open source code under the Eclipse Public License (EPL).
         For more information visit http://projects.coin-or.org/Ipopt
******************************************************************************

This is Ipopt version 3.12.6, running with linear solver ma57.

Number of nonzeros in equality constraint Jacobian...:    10000
Number of nonzeros in inequality constraint Jacobian.:        0
Number of nonzeros in Lagrangian Hessian.............:     3000

Total number of variables............................:     4000
                     variables with only lower bounds:        0
                variables with lower and upper bounds:     2000
                     variables with only upper bounds:        0
Total number of equality constraints.................:     2002
Total number of inequality constraints...............:        0
        inequality constraints with only lower bounds:        0
   inequality constraints with lower and upper bounds:        0
        inequality constraints with only upper bounds:        0

iter    objective    inf_pr   inf_du lg(mu)  ||d||  lg(rg) alpha_du alpha_pr  ls
   0  2.9940060e-05 5.04e-03 1.50e-06  -1.0 0.00e+00    -  0.00e+00 0.00e+00   0
   1  1.1642677e-04 5.03e-03 4.38e-02  -1.0 2.92e+00    -  3.50e-03 3.66e-03h  1
   2  1.9325034e-02 4.56e-03 4.77e+00  -1.0 5.85e+01    -  4.21e-04 9.32e-02f  1
   3  1.5788309e-01 3.65e-03 4.44e+00  -1.0 1.77e+01    -  6.81e-02 2.00e-01f  1
   4  6.2956052e-01 2.41e-03 3.40e+00  -1.0 9.16e+00    -  1.56e-01 3.38e-01f  1
   5  1.4868648e+00 1.33e-03 2.26e+00  -1.0 5.90e+00    -  2.12e-01 4.47e-01f  1
   6  2.5409885e+00 5.80e-04 1.20e+00  -1.0 3.62e+00    -  2.98e-01 5.65e-01f  1
   7  3.6030923e+00 1.21e-04 2.14e-01  -1.0 2.03e+00    -  4.85e-01 7.91e-01f  1
   8  4.3080026e+00 6.54e-06 1.06e-01  -1.0 1.07e+00    -  8.75e-01 1.00e+00f  1
   9  4.4404469e+00 1.62e-07 1.23e-03  -1.7 2.67e-01    -  1.00e+00 1.00e+00f  1
iter    objective    inf_pr   inf_du lg(mu)  ||d||  lg(rg) alpha_du alpha_pr  ls
  10  4.4693179e+00 9.24e-08 1.06e-04  -2.5 2.17e-01    -  1.00e+00 1.00e+00f  1
  11  4.1713796e+00 7.16e-07 7.85e-03  -3.8 1.41e+00    -  7.40e-01 1.00e+00f  1
  12  3.8085839e+00 1.99e-06 4.05e-03  -3.8 3.17e+00    -  4.58e-01 6.30e-01f  1
  13  3.6252681e+00 1.45e-06 2.44e-03  -3.8 2.63e+00    -  3.78e-01 5.09e-01f  1
  14  3.5101529e+00 9.23e-07 1.22e-03  -3.8 2.18e+00    -  4.98e-01 5.06e-01f  1
  15  3.3949989e+00 7.84e-07 1.05e-03  -5.7 3.17e+00    -  2.44e-01 3.49e-01f  1
  16  3.3164033e+00 6.16e-07 8.19e-04  -5.7 2.93e+00    -  2.71e-01 3.28e-01f  1
  17  3.2594015e+00 4.94e-07 6.44e-04  -5.7 2.88e+00    -  2.58e-01 3.17e-01f  1
  18  3.2188095e+00 4.29e-07 5.08e-04  -5.7 2.93e+00    -  2.47e-01 3.02e-01f  1
  19  3.1894627e+00 3.66e-07 4.02e-04  -5.7 3.07e+00    -  2.40e-01 2.91e-01f  1
iter    objective    inf_pr   inf_du lg(mu)  ||d||  lg(rg) alpha_du alpha_pr  ls
  20  3.1679100e+00 3.08e-07 3.19e-04  -5.7 3.13e+00    -  2.35e-01 2.85e-01f  1
  21  3.1520140e+00 2.56e-07 2.51e-04  -5.7 3.15e+00    -  2.36e-01 2.80e-01f  1
  22  3.1400503e+00 2.09e-07 1.98e-04  -5.7 3.17e+00    -  2.34e-01 2.82e-01f  1
  23  3.1308910e+00 1.67e-07 1.55e-04  -5.7 3.10e+00    -  2.37e-01 2.91e-01f  1
  24  3.1243604e+00 1.32e-07 1.19e-04  -5.7 3.06e+00    -  2.48e-01 2.85e-01f  1
  25  3.1193616e+00 1.02e-07 9.07e-05  -5.7 2.96e+00    -  2.52e-01 2.98e-01f  1
  26  3.1154572e+00 7.59e-08 6.35e-05  -5.7 2.92e+00    -  3.06e-01 3.25e-01f  1
  27  3.1128167e+00 5.58e-08 4.28e-05  -5.7 2.53e+00    -  3.25e-01 3.19e-01f  1
  28  3.1107990e+00 3.91e-08 2.25e-05  -5.7 2.88e+00    -  4.58e-01 3.54e-01f  1
  29  3.1090070e+00 2.33e-08 5.99e-06  -5.7 2.74e+00    -  1.00e+00 4.79e-01f  1
iter    objective    inf_pr   inf_du lg(mu)  ||d||  lg(rg) alpha_du alpha_pr  ls
  30  3.1058934e+00 1.47e-08 1.89e-05  -8.6 2.40e+00    -  1.66e-01 5.58e-01f  1
  31  3.1050330e+00 9.97e-09 7.21e-06  -8.6 1.45e+00    -  8.80e-01 3.43e-01f  1
  32  3.1041977e+00 5.18e-09 2.44e-05  -8.6 7.81e-01    -  2.33e-01 5.16e-01f  1
  33  3.1033870e+00 3.38e-10 2.17e-08  -8.6 5.95e-01    -  9.74e-01 1.00e+00f  1
  34  3.1033837e+00 5.70e-15 1.40e-14  -9.0 1.89e-03    -  1.00e+00 1.00e+00h  1

Number of Iterations....: 34

                                   (scaled)                 (unscaled)
Objective...............:   3.1033837014149639e+00    3.1033837014149639e+00
Dual infeasibility......:   1.3995207485429788e-14    1.3995207485429788e-14
Constraint violation....:   5.6965066344560888e-15    5.6965066344560888e-15
Complementarity.........:   9.2810755185164479e-10    9.2810755185164479e-10
Overall NLP error.......:   9.2810755185164479e-10    9.2810755185164479e-10


Number of objective function evaluations             = 35
Number of objective gradient evaluations             = 35
Number of equality constraint evaluations            = 35
Number of inequality constraint evaluations          = 0
Number of equality constraint Jacobian evaluations   = 35
Number of inequality constraint Jacobian evaluations = 0
Number of Lagrangian Hessian evaluations             = 34
Total CPU secs in IPOPT (w/o function evaluations)   =      0.090
Total CPU secs in NLP function evaluations           =      0.020

EXIT: Optimal Solution Found.

************************ CUTEst statistics ************************


 Package used            :  IPOPT
 Problem                 :  TRAINF    
 # variables             =            4008
 # constraints           =            2002
 # objective functions   =        0.7100000E+02
 # objective gradients   =        0.3600000E+02
 # objective Hessians    =        0.3500000E+02
 # Hessian-vector prdct  =        0.0000000E+00
 # constraints functions =        0.7200000E+02
 # constraints gradients =        0.3700000E+02
 # constraints Hessians  =        0.3500000E+02
 Exit code               =               0
 Final f                 =   0.3103384E+01
 Set up time             =            0.04 seconds
 Solve time              =            0.24 seconds


******************************************************************

System Time =       0.0949999988 s.
